c Result of efficient AIG-to-CNF conversion using package CNF
p cnf 378 1292
2 346 347 -41 0
2 346 347 -3 0
-2 -346 0
-2 -347 0
-2 3 41 0
-3 4 29 0
-3 -348 29 0
-3 -21 29 0
3 -29 0
3 348 -4 21 0
4 5 -7 12 15 0
-4 -15 0
-4 -5 0
-4 -12 0
-4 7 0
-5 358 359 360 6 0
5 -6 0
5 -360 0
5 -358 0
5 -359 0
-6 352 353 354 0
6 -352 0
6 -354 0
6 -353 0
7 374 -8 0
-7 -374 0
-7 8 0
8 375 -9 0
-8 -375 0
-8 9 0
9 376 -10 0
-9 -376 0
-9 10 0
10 377 -11 0
10 -314 -377 0
10 -346 -377 0
-10 377 11 0
-10 314 346 -377 0
-11 315 347 0
11 -315 0
11 -347 0
-12 349 364 13 14 0
12 -349 0
12 -14 0
12 -13 0
12 -364 0
-13 370 372 0
13 -370 0
13 -372 0
-14 350 351 0
14 -350 0
14 -351 0
-15 16 20 0
15 -16 0
15 -20 0
-16 17 19 0
16 -17 0
16 -19 0
-17 361 362 363 18 0
17 -18 0
17 -363 0
17 -361 0
17 -362 0
-18 355 356 357 0
18 -355 0
18 -357 0
18 -356 0
-19 365 366 367 0
19 -365 0
19 -367 0
19 -366 0
-20 368 369 371 373 0
20 -373 0
20 -371 0
20 -368 0
20 -369 0
21 12 22 23 -24 0
-21 24 0
-21 -12 0
-21 -23 0
-21 -22 0
-22 371 373 0
22 -371 0
22 -373 0
-23 367 368 369 0
23 -367 0
23 -369 0
23 -368 0
24 5 17 25 -26 0
-24 26 0
-24 -5 0
-24 -25 0
-24 -17 0
-25 365 366 0
25 -365 0
25 -366 0
26 374 -27 0
-26 -374 0
-26 27 0
27 375 -28 0
-27 -375 0
-27 28 0
28 -314 376 -377 0
28 -315 376 377 0
-28 -376 0
-28 314 -377 0
-28 315 377 0
29 374 13 -30 38 0
-29 -374 0
-29 -38 0
-29 30 0
-29 -13 0
30 19 -31 36 37 0
-30 -37 0
-30 -19 0
-30 -36 0
-30 31 0
31 20 -32 0
-31 -20 0
-31 32 0
32 33 -34 0
-32 -33 0
-32 34 0
33 -314 375 376 377 0
-33 -377 0
-33 -376 0
-33 314 0
-33 -375 0
34 375 -35 0
-34 -375 0
-34 35 0
35 -314 376 377 0
35 -346 376 377 0
-35 -377 0
-35 -376 0
-35 314 346 0
-36 358 359 14 0
36 -14 0
36 -359 0
36 -358 0
-37 362 363 364 0
37 -362 0
37 -364 0
37 -363 0
-38 348 349 39 40 0
38 -348 0
38 -40 0
38 -39 0
38 -349 0
-39 355 356 357 6 0
39 -6 0
39 -357 0
39 -355 0
39 -356 0
-40 360 361 0
40 -360 0
40 -361 0
41 348 349 -166 0
41 348 349 -42 0
-41 -348 0
-41 -349 0
-41 42 166 0
42 14 -64 0
42 14 43 -58 0
-42 -14 0
-42 -43 64 0
-42 58 64 0
43 374 -44 50 0
-43 -50 0
-43 44 0
-43 -374 0
44 -375 -9 0
44 375 -45 0
-44 375 45 0
-44 -375 9 0
45 376 -46 0
45 -376 -48 0
-45 -376 48 0
-45 376 46 0
46 377 -47 0
46 -318 -377 0
46 -350 -377 0
-46 377 47 0
-46 318 350 -377 0
-47 319 351 0
47 -319 0
47 -351 0
48 377 -49 0
48 -316 -377 0
48 -348 -377 0
-48 377 49 0
-48 316 348 -377 0
-49 317 349 0
49 -317 0
49 -349 0
-50 51 53 0
50 -51 0
50 -53 0
-51 14 52 0
51 -14 0
51 -52 0
-52 365 366 39 0
52 -39 0
52 -366 0
52 -365 0
-53 369 37 40 54 0
53 -369 0
53 -54 0
53 -40 0
53 -37 0
-54 367 368 55 0
54 -55 0
54 -368 0
54 -367 0
-55 372 373 56 57 0
55 -372 0
55 -57 0
55 -56 0
55 -373 0
-56 358 359 0
56 -358 0
56 -359 0
-57 370 371 0
57 -370 0
57 -371 0
58 374 59 -60 0
-58 60 0
-58 -59 0
-58 -374 0
-59 52 53 0
59 -52 0
59 -53 0
60 -375 -28 0
60 375 -61 0
-60 375 61 0
-60 -375 28 0
61 376 -62 0
61 -376 -63 0
-61 -376 63 0
-61 376 62 0
62 -319 377 0
62 -318 -377 0
-62 319 377 0
-62 318 -377 0
63 -317 377 0
63 -316 -377 0
-63 317 377 0
-63 316 -377 0
64 59 -91 0
64 374 59 -65 0
-64 -59 0
-64 -374 91 0
-64 65 91 0
-65 -66 82 0
-65 71 -76 0
-65 71 82 0
-65 -66 -76 0
65 66 -71 0
65 76 -82 0
66 -375 -67 0
66 375 -69 0
-66 375 69 0
-66 -375 67 0
67 -376 -68 0
67 376 -63 0
-67 376 63 0
-67 -376 68 0
68 -315 377 0
68 -314 -377 0
-68 315 377 0
-68 314 -377 0
69 -376 -62 0
69 376 -70 0
-69 376 70 0
-69 -376 62 0
70 -321 377 0
70 -320 -377 0
-70 321 377 0
-70 320 -377 0
71 -375 -72 0
71 375 -73 0
-71 375 73 0
-71 -375 72 0
72 -376 -10 0
72 376 -48 0
-72 376 48 0
-72 -376 10 0
73 -376 -46 0
73 376 -74 0
-73 376 74 0
-73 -376 46 0
74 377 -75 0
74 -320 -377 0
74 -352 -377 0
-74 377 75 0
-74 320 352 -377 0
-75 321 353 0
75 -321 0
75 -353 0
76 375 -77 0
76 -375 -80 0
-76 -375 80 0
-76 375 77 0
77 -376 -78 0
77 376 -79 0
-77 376 79 0
-77 -376 78 0
78 -318 377 0
78 -317 -377 0
-78 318 377 0
-78 317 -377 0
79 -320 377 0
79 -319 -377 0
-79 320 377 0
-79 319 -377 0
80 376 -81 0
80 -314 -376 377 0
-80 376 81 0
-80 -376 -377 0
-80 314 -376 0
81 -316 377 0
81 -315 -377 0
-81 316 377 0
-81 315 -377 0
82 375 -83 0
82 -375 -88 0
-82 -375 88 0
-82 375 83 0
83 -376 -84 0
83 376 -86 0
-83 376 86 0
-83 -376 84 0
84 377 -85 0
84 -317 -377 0
84 -349 -377 0
-84 377 85 0
-84 317 349 -377 0
-85 318 350 0
85 -318 0
85 -350 0
86 377 -87 0
86 -319 -377 0
86 -351 -377 0
-86 377 87 0
-86 319 351 -377 0
-87 320 352 0
87 -320 0
87 -352 0
88 -376 -89 0
88 376 -90 0
-88 376 90 0
-88 -376 89 0
89 -314 377 0
89 -346 377 0
-89 -377 0
-89 314 346 0
90 -348 377 0
90 -377 -11 0
90 -316 377 0
-90 -377 11 0
-90 316 348 377 0
91 92 -144 0
91 92 -107 0
91 92 -161 0
-91 -92 0
-91 107 144 161 0
92 32 -93 101 104 0
-92 93 0
-92 -101 0
-92 -32 0
-92 -104 0
93 -374 8 94 0
93 -374 -27 94 0
-93 -94 0
-93 374 0
-93 -8 27 0
-94 95 -96 0
-94 95 99 0
94 -95 0
94 96 -99 0
95 -44 60 0
-95 44 0
-95 -60 0
96 -375 -97 0
96 375 -98 0
-96 375 98 0
-96 -375 97 0
97 -314 376 377 0
-97 314 0
-97 -377 0
-97 -376 0
98 376 -78 0
98 -376 -81 0
-98 -376 81 0
-98 376 78 0
99 -375 -35 0
99 375 -100 0
-99 375 100 0
-99 -375 35 0
100 376 -84 0
100 -376 -90 0
-100 -376 90 0
-100 376 84 0
101 102 -103 0
-101 -102 0
-101 103 0
102 375 -67 0
-102 -375 0
-102 67 0
103 375 -72 0
-103 -375 0
-103 72 0
-104 65 -105 0
-104 65 106 0
104 -65 0
104 105 -106 0
105 375 -80 0
-105 -375 0
-105 80 0
106 375 -88 0
-106 -375 0
-106 88 0
-107 374 108 -126 0
-107 374 108 133 0
107 -374 0
107 -108 0
107 126 -133 0
-108 -109 125 0
-108 115 -124 0
-108 115 125 0
-108 -109 -124 0
108 109 -115 0
108 124 -125 0
109 375 -110 0
109 -375 -113 0
-109 -375 113 0
-109 375 110 0
110 376 -111 0
110 -376 -112 0
-110 -376 112 0
-110 376 111 0
111 -326 377 0
111 -325 -377 0
-111 326 377 0
-111 325 -377 0
112 -324 377 0
112 -323 -377 0
-112 324 377 0
-112 323 -377 0
113 -376 -79 0
113 376 -114 0
-113 376 114 0
-113 -376 79 0
114 -322 377 0
114 -321 -377 0
-114 322 377 0
-114 321 -377 0
115 375 -116 0
115 -375 -121 0
-115 -375 121 0
-115 375 116 0
116 376 -117 0
116 -376 -119 0
-116 -376 119 0
-116 376 117 0
117 377 -118 0
117 -325 -377 0
117 -357 -377 0
-117 377 118 0
-117 325 357 -377 0
-118 326 358 0
118 -326 0
118 -358 0
119 377 -120 0
119 -323 -377 0
119 -355 -377 0
-119 377 120 0
-119 323 355 -377 0
-120 324 356 0
120 -324 0
120 -356 0
121 -376 -86 0
121 376 -122 0
-121 376 122 0
-121 -376 86 0
122 377 -123 0
122 -321 -377 0
122 -353 -377 0
-122 377 123 0
-122 321 353 -377 0
-123 322 354 0
123 -322 0
123 -354 0
124 -375 -98 0
124 375 -113 0
-124 375 113 0
-124 -375 98 0
125 -375 -100 0
125 375 -121 0
-125 375 121 0
-125 -375 100 0
126 375 -127 0
126 -375 -130 0
-126 -375 130 0
-126 375 127 0
127 376 -128 0
127 -376 -129 0
-127 -376 129 0
-127 376 128 0
128 -329 377 0
128 -328 -377 0
-128 329 377 0
-128 328 -377 0
129 -327 377 0
129 -326 -377 0
-129 327 377 0
-129 326 -377 0
130 376 -131 0
130 -376 -132 0
-130 -376 132 0
-130 376 131 0
131 -325 377 0
131 -324 -377 0
-131 325 377 0
-131 324 -377 0
132 -323 377 0
132 -322 -377 0
-132 323 377 0
-132 322 -377 0
133 375 -134 0
133 -375 -139 0
-133 -375 139 0
-133 375 134 0
134 376 -135 0
134 -376 -137 0
-134 -376 137 0
-134 376 135 0
135 377 -136 0
135 -328 -377 0
135 -360 -377 0
-135 377 136 0
-135 328 360 -377 0
-136 329 361 0
136 -329 0
136 -361 0
137 377 -138 0
137 -326 -377 0
137 -358 -377 0
-137 377 138 0
-137 326 358 -377 0
-138 327 359 0
138 -327 0
138 -359 0
139 376 -140 0
139 -376 -142 0
-139 -376 142 0
-139 376 140 0
140 377 -141 0
140 -324 -377 0
140 -356 -377 0
-140 377 141 0
-140 324 356 -377 0
-141 325 357 0
141 -325 0
141 -357 0
142 377 -143 0
142 -322 -377 0
142 -354 -377 0
-142 377 143 0
-142 322 354 -377 0
-143 323 355 0
143 -323 0
143 -355 0
-144 145 -151 153 0
-144 145 152 153 0
144 -145 0
144 -153 0
144 151 -152 0
145 -375 -146 0
145 375 149 -150 0
-145 -375 146 0
-145 375 150 0
-145 375 -149 0
146 147 -148 0
-146 -147 0
-146 148 0
147 -376 -70 0
147 376 -132 0
-147 376 132 0
-147 -376 70 0
148 -376 -74 0
148 376 -142 0
-148 376 142 0
-148 -376 74 0
149 376 -129 0
149 -376 -131 0
-149 -376 131 0
-149 376 129 0
150 376 -137 0
150 -376 -140 0
-150 -376 140 0
-150 376 137 0
151 -375 -69 0
151 375 -130 0
-151 375 130 0
-151 -375 69 0
152 -375 -73 0
152 375 -139 0
-152 375 139 0
-152 -375 73 0
153 -375 154 -160 0
153 375 154 -158 0
-153 -154 0
-153 -375 160 0
-153 375 158 0
154 375 -155 0
154 -375 -157 0
-154 -375 157 0
-154 375 155 0
155 -376 -111 0
155 376 -156 0
-155 376 156 0
-155 -376 111 0
156 -328 377 0
156 -327 -377 0
-156 328 377 0
-156 327 -377 0
157 376 -112 0
157 -376 -114 0
-157 -376 114 0
-157 376 112 0
158 -376 -117 0
158 376 -159 0
-158 376 159 0
-158 -376 117 0
159 -360 377 0
159 -377 -138 0
159 -328 377 0
-159 -377 138 0
-159 328 360 377 0
160 376 -119 0
160 -376 -122 0
-160 -376 122 0
-160 376 119 0
-161 -162 165 0
-161 163 -164 0
-161 163 165 0
-161 -162 -164 0
161 162 -163 0
161 164 -165 0
162 -375 -61 0
162 375 -147 0
-162 375 147 0
-162 -375 61 0
163 -375 -45 0
163 375 -148 0
-163 375 148 0
-163 -375 45 0
164 -375 -77 0
164 375 -157 0
-164 375 157 0
-164 -375 77 0
165 -375 -83 0
165 375 -160 0
-165 375 160 0
-165 -375 83 0
-166 167 290 300 309 0
166 -300 0
166 -309 0
166 -167 0
166 -290 0
-167 168 -183 187 0
-167 168 187 212 0
167 -168 0
167 -187 0
167 183 -212 0
-168 170 173 0
-168 50 -169 173 0
168 -173 0
168 169 -170 0
168 -50 -170 0
169 374 -96 0
-169 -374 0
-169 96 0
170 37 -171 172 0
-170 -37 0
-170 171 0
-170 -172 0
171 374 -99 0
-171 -374 0
-171 99 0
-172 23 40 51 55 0
172 -55 0
172 -23 0
172 -51 0
172 -40 0
-173 43 174 0
-173 14 -58 174 0
173 -174 0
173 -43 58 0
173 -14 -43 0
-174 175 182 0
-174 175 -181 0
-174 -50 175 0
174 -175 0
174 50 181 -182 0
175 50 -179 -180 0
175 50 176 -180 0
-175 180 0
-175 -50 0
-175 -176 179 0
176 13 14 177 -178 0
-176 178 0
-176 -13 0
-176 -177 0
-176 -14 0
-177 368 369 0
177 -368 0
177 -369 0
178 374 -105 0
-178 -374 0
-178 105 0
-179 364 5 16 22 0
179 -364 0
179 -22 0
179 -16 0
179 -5 0
180 374 -106 0
-180 -374 0
-180 106 0
181 374 -102 0
-181 -374 0
-181 102 0
182 374 -103 0
-182 -374 0
-182 103 0
-183 360 372 184 185 0
183 -360 0
183 -185 0
183 -184 0
183 -372 0
-184 364 19 39 0
184 -39 0
184 -19 0
184 -364 0
-185 186 177 36 57 0
185 -57 0
185 -186 0
185 -36 0
185 -177 0
-186 361 362 363 0
186 -361 0
186 -363 0
186 -362 0
-187 188 -211 0
-187 188 202 0
-187 188 201 0
187 -188 0
187 -201 -202 211 0
188 -373 189 -190 -200 0
-188 200 0
-188 373 0
-188 190 0
-188 -189 0
189 374 -66 0
-189 -374 0
-189 66 0
190 374 -191 183 0
190 -126 -191 183 0
-190 -183 0
-190 191 0
-190 -374 126 0
-191 192 193 0
191 -192 0
191 -193 0
-192 373 374 0
192 -373 0
192 -374 0
193 375 -194 0
193 -375 -197 0
-193 -375 197 0
-193 375 194 0
194 376 -195 0
194 -376 -196 0
-194 -376 196 0
-194 376 195 0
195 -337 377 0
195 -336 -377 0
-195 337 377 0
-195 336 -377 0
196 -335 377 0
196 -334 -377 0
-196 335 377 0
-196 334 -377 0
197 376 -198 0
197 -376 -199 0
-197 -376 199 0
-197 376 198 0
198 -333 377 0
198 -332 -377 0
-198 333 377 0
-198 332 -377 0
199 -331 377 0
199 -330 -377 0
-199 331 377 0
-199 330 -377 0
200 374 -71 0
-200 -374 0
-200 71 0
201 -373 -374 0
201 -373 76 0
-201 373 0
-201 374 -76 0
202 -154 183 -203 0
202 374 183 -203 0
-202 -183 0
-202 203 0
-202 -374 154 0
-203 192 204 0
203 -192 0
203 -204 0
204 375 -205 0
204 -375 -208 0
-204 -375 208 0
-204 375 205 0
205 376 -206 0
205 -376 -207 0
-205 -376 207 0
-205 376 206 0
206 -336 377 0
206 -335 -377 0
-206 336 377 0
-206 335 -377 0
207 -334 377 0
207 -333 -377 0
-207 334 377 0
-207 333 -377 0
208 376 -209 0
208 -376 -210 0
-208 -376 210 0
-208 376 209 0
209 -332 377 0
209 -331 -377 0
-209 332 377 0
-209 331 -377 0
210 -330 377 0
210 -329 -377 0
-210 330 377 0
-210 329 -377 0
211 -373 -374 0
211 -373 82 0
-211 373 0
-211 374 -82 0
-212 -373 289 0
-212 373 213 224 0
212 -373 -289 0
212 373 -213 0
212 373 -224 0
-213 -375 -214 0
-213 375 218 0
-213 -375 215 0
213 375 -218 0
213 -375 214 -215 0
214 -376 -128 0
214 376 -199 0
-214 376 199 0
-214 -376 128 0
215 -376 -135 0
215 376 -216 0
-215 376 216 0
-215 -376 135 0
216 377 -217 0
216 -330 -377 0
216 -362 -377 0
-216 377 217 0
-216 330 362 -377 0
-217 331 363 0
217 -331 0
217 -363 0
218 -376 219 -222 0
218 376 219 -220 0
-218 -219 0
-218 -376 222 0
-218 376 220 0
219 376 -196 0
219 -376 -198 0
-219 -376 198 0
-219 376 196 0
220 -367 377 0
220 -377 -221 0
220 -335 377 0
-220 -377 221 0
-220 335 367 377 0
-221 334 366 0
221 -334 0
221 -366 0
222 377 -223 0
222 -332 -377 0
222 -364 -377 0
-222 377 223 0
-222 332 364 -377 0
-223 333 365 0
223 -333 0
223 -365 0
224 -225 265 0
224 -374 265 0
224 -254 265 0
-224 -265 0
-224 374 225 254 0
-225 375 242 0
-225 -375 226 235 0
225 -375 -226 0
225 375 -242 0
225 -375 -235 0
-226 376 218 230 0
-226 218 227 230 0
226 -230 0
226 -218 0
226 -376 -227 0
227 337 377 -228 0
227 336 -377 -228 0
-227 228 0
-227 -337 377 0
-227 -336 -377 0
228 -369 377 0
228 -377 -229 0
228 -337 377 0
-228 -377 229 0
-228 337 369 377 0
-229 336 368 0
229 -336 0
229 -368 0
230 231 -232 0
-230 -231 0
-230 232 0
231 376 -207 0
231 -376 -209 0
-231 -376 209 0
-231 376 207 0
232 376 -233 0
232 -376 -234 0
-232 -376 234 0
-232 376 233 0
233 377 -221 0
233 -333 -377 0
233 -365 -377 0
-233 377 221 0
-233 333 365 -377 0
234 -364 377 0
234 -377 -217 0
234 -332 377 0
-234 -377 217 0
-234 332 364 377 0
-235 -194 236 239 0
-235 236 239 241 0
235 -239 0
235 -236 0
235 194 -241 0
236 205 -237 0
-236 -205 0
-236 237 0
237 -376 -233 0
237 376 -238 0
-237 376 238 0
-237 -376 233 0
238 377 -229 0
238 -335 -377 0
238 -367 -377 0
-238 377 229 0
-238 335 367 -377 0
-239 377 240 0
-239 -338 -377 0
-239 370 -377 0
239 377 -240 0
239 338 -370 -377 0
240 339 -371 0
-240 -339 0
-240 371 0
241 -376 -220 0
241 376 -228 0
-241 376 228 0
-241 -376 220 0
-242 376 245 0
-242 -243 248 0
-242 376 -243 0
-242 245 248 0
242 -376 -248 0
242 243 -245 0
243 -376 -206 0
243 376 -244 0
-243 376 244 0
-243 -376 206 0
244 -338 377 0
244 -337 -377 0
-244 338 377 0
-244 337 -377 0
245 -376 -238 0
245 376 -246 0
-245 376 246 0
-245 -376 238 0
246 377 -247 0
246 -337 -377 0
246 -369 -377 0
-246 377 247 0
-246 337 369 -377 0
-247 338 370 0
247 -338 0
247 -370 0
-248 227 249 252 0
-248 227 249 -251 0
248 -227 0
248 -249 0
248 251 -252 0
249 -377 -250 0
249 341 -373 377 0
-249 373 377 0
-249 -377 250 0
-249 -341 377 0
250 340 -372 0
-250 -340 0
-250 372 0
251 -342 377 0
251 -341 -377 0
-251 342 377 0
-251 341 -377 0
252 -342 253 0
252 -374 253 0
252 -377 253 0
-252 -253 0
-252 342 374 377 0
253 341 373 -377 0
-253 377 0
-253 -373 0
-253 -341 0
-254 -376 255 264 0
-254 376 255 262 0
254 -255 0
254 -376 -264 0
254 376 -262 0
255 375 256 -259 0
255 -375 -245 256 0
-255 -256 0
-255 375 259 0
-255 -375 245 0
-256 -375 243 0
-256 375 257 0
256 -375 -243 0
256 375 -257 0
-257 -376 258 0
-257 376 251 0
257 376 -251 0
257 -376 -258 0
258 -340 377 0
258 -339 -377 0
-258 340 377 0
-258 339 -377 0
-259 -376 260 0
-259 376 252 0
259 376 -252 0
259 -376 -260 0
260 -372 377 0
260 -377 -261 0
260 -340 377 0
-260 -377 261 0
-260 340 372 377 0
-261 339 371 0
261 -339 0
261 -371 0
-262 -375 249 263 0
-262 239 249 263 0
262 -263 0
262 -249 0
262 375 -239 0
263 340 377 -260 0
263 339 -377 -260 0
-263 260 0
-263 -340 377 0
-263 -339 -377 0
-264 239 -244 0
-264 239 246 0
264 -239 0
264 244 -246 0
265 374 266 -275 0
265 145 266 -275 0
-265 275 0
-265 -266 0
-265 -374 -145 0
-266 -267 273 0
-266 269 273 0
266 -273 0
266 267 -269 0
267 -375 -110 0
267 375 -268 0
-267 375 268 0
-267 -375 110 0
268 -376 -156 0
268 376 -210 0
-268 376 210 0
-268 -376 156 0
269 -375 -116 0
269 375 -270 0
-269 375 270 0
-269 -375 116 0
270 -376 -159 0
270 376 -271 0
-270 376 271 0
-270 -376 159 0
271 377 -272 0
271 -329 -377 0
271 -361 -377 0
-271 377 272 0
-271 329 361 -377 0
-272 330 362 0
272 -330 0
272 -362 0
273 -375 204 -274 0
273 375 204 -237 0
-273 -204 0
-273 -375 274 0
-273 375 237 0
274 376 -234 0
274 -376 -271 0
-274 -376 271 0
-274 376 234 0
275 -276 -279 282 0
275 277 -279 282 0
-275 -282 0
-275 279 0
-275 276 -277 0
276 -375 -127 0
276 375 -197 0
-276 375 197 0
-276 -375 127 0
-277 375 278 0
-277 -375 134 0
277 -375 -134 0
277 375 -278 0
278 -376 -216 0
278 376 -222 0
-278 376 222 0
-278 -376 216 0
279 -374 -280 0
279 -374 281 0
-279 374 0
-279 280 -281 0
280 375 -231 0
280 -375 -268 0
-280 -375 268 0
-280 375 231 0
281 375 -232 0
281 -375 -270 0
-281 -375 270 0
-281 375 232 0
-282 283 284 288 0
-282 283 284 -287 0
282 -283 0
282 -284 0
282 287 -288 0
283 -375 193 -278 0
283 375 193 -241 0
-283 -193 0
-283 -375 278 0
-283 375 241 0
284 285 -286 0
-284 -285 0
-284 286 0
285 -375 -149 0
285 375 -214 0
-285 375 214 0
-285 -375 149 0
286 -375 -150 0
286 375 -215 0
-286 375 215 0
-286 -375 150 0
287 -375 -155 0
287 375 -208 0
-287 375 208 0
-287 -375 155 0
288 -375 -158 0
288 375 -274 0
-288 375 274 0
-288 -375 158 0
-289 -374 91 0
-289 95 91 0
289 -91 0
289 374 -95 0
-290 -291 295 0
-290 293 295 0
-290 -183 295 0
290 -295 0
290 183 291 -293 0
-291 -373 181 0
-291 373 292 0
291 -373 -181 0
291 373 -292 0
-292 374 276 0
-292 -374 151 0
292 -374 -151 0
292 374 -276 0
-293 -373 182 0
-293 373 294 0
293 -373 -182 0
293 373 -294 0
-294 -374 152 0
-294 374 277 0
294 -374 -152 0
294 374 -277 0
295 183 296 -298 299 0
-295 298 0
-295 -299 0
-295 -183 0
-295 -296 0
-296 -373 169 0
-296 373 297 0
296 -373 -169 0
296 373 -297 0
-297 374 280 0
-297 -374 109 0
297 -374 -109 0
297 374 -280 0
298 -374 -115 0
298 -373 374 0
298 374 -281 0
-298 -374 115 0
-298 373 374 281 0
299 -373 171 0
-299 373 0
-299 -171 0
-300 -183 0
-300 -301 305 0
-300 303 305 0
300 183 -305 0
300 183 301 -303 0
-301 -373 178 0
-301 373 302 0
301 -373 -178 0
301 373 -302 0
-302 374 287 0
-302 -374 164 0
302 -374 -164 0
302 374 -287 0
-303 -373 180 0
-303 373 304 0
303 -373 -180 0
303 373 -304 0
-304 374 288 0
-304 -374 165 0
304 -374 -165 0
304 374 -288 0
305 -192 306 308 0
305 -269 306 308 0
-305 -308 0
-305 -306 0
-305 192 269 0
306 -267 307 0
306 -192 307 0
-306 -307 0
-306 192 267 0
307 -373 33 0
307 -374 124 0
307 -373 -374 0
-307 373 -124 0
-307 374 -33 0
-307 373 374 0
308 -373 34 0
308 -374 125 0
308 -373 -374 0
-308 373 -125 0
-308 374 -34 0
-308 373 374 0
309 183 310 -312 0
-309 -183 0
-309 -310 0
-309 312 0
-310 -373 26 0
-310 373 311 0
310 -373 -26 0
310 373 -311 0
-311 374 285 0
-311 -374 162 0
311 -374 -162 0
311 374 -285 0
-312 -373 7 0
-312 373 313 0
312 -373 -7 0
312 373 -313 0
-313 374 286 0
-313 -374 163 0
313 -374 -163 0
313 374 -286 0
-378 0
2 0

